c uprop, v00.0, 
c reading from data/prog204.c.cnf
c done reading: 0.003996
p cnf 180 841
-85 -105 0
-85 -101 0
85 101 105 0
-79 101 105 0
-79 -101 -105 0
79 101 -105 0
79 -101 105 0
85 -97 0
-95 -97 0
-85 95 97 0
-85 -90 95 0
85 -90 -95 0
85 90 95 0
-85 90 -95 0
-86 97 0
-83 -86 0
83 86 -97 0
-81 83 -97 0
-81 -83 97 0
81 83 97 0
81 -83 -97 0
-80 86 0
-77 -80 0
77 80 -86 0
77 -86 -103 0
-77 86 -103 0
77 86 103 0
-77 -86 103 0
80 -107 0
-99 -107 0
-80 99 107 0
-80 99 -108 0
80 -99 -108 0
80 99 108 0
-80 -99 108 0
107 -109 0
-92 -109 0
92 -107 109 0
92 -107 -110 0
-92 107 -110 0
92 107 110 0
-92 -107 110 0
109 -111 0
-88 -111 0
88 -109 111 0
88 -109 -112 0
-88 109 -112 0
88 109 112 0
-88 -109 112 0
101 -113 0
105 -113 0
-101 -105 113 0
-101 -105 -114 0
101 105 -114 0
-101 105 114 0
101 -105 114 0
-95 -101 115 0
-95 -113 115 0
-101 -113 115 0
95 101 -115 0
95 113 -115 0
101 113 -115 0
95 -115 -116 0
101 -115 -116 0
113 -115 -116 0
-95 115 116 0
-101 115 116 0
-113 115 116 0
-95 -101 -113 116 0
95 101 113 -116 0
-83 -95 117 0
-83 -115 117 0
-95 -115 117 0
83 95 -117 0
83 115 -117 0
95 115 -117 0
83 -117 -118 0
95 -117 -118 0
115 -117 -118 0
-83 117 118 0
-95 117 118 0
-115 117 118 0
-83 -95 -115 118 0
83 95 115 -118 0
-77 -83 119 0
-77 -117 119 0
-83 -117 119 0
77 83 -119 0
77 117 -119 0
83 117 -119 0
-75 77 -119 0
-75 83 -119 0
-75 117 -119 0
75 -77 119 0
75 -83 119 0
75 -117 119 0
75 -77 -83 -117 0
-75 77 83 117 0
74 -77 -99 0
74 -99 -119 0
74 -77 -119 0
-74 77 99 0
-74 99 119 0
-74 77 119 0
-73 -74 99 0
-73 -74 77 0
-73 -74 119 0
73 74 -99 0
73 74 -77 0
73 74 -119 0
73 -77 -99 -119 0
-73 77 99 119 0
72 -92 -99 0
72 -74 -92 0
72 -74 -99 0
-72 92 99 0
-72 74 92 0
-72 74 99 0
-71 -72 92 0
-71 -72 99 0
-71 -72 74 0
71 72 -92 0
71 72 -99 0
71 72 -74 0
71 -74 -92 -99 0
-71 74 92 99 0
70 -88 -92 0
70 -72 -88 0
70 -72 -92 0
-70 88 92 0
-70 72 88 0
-70 72 92 0
-70 88 -104 0
-70 92 -104 0
-70 72 -104 0
70 -88 104 0
70 -92 104 0
70 -72 104 0
-72 -88 -92 104 0
72 88 92 -104 0
88 -100 0
70 -100 0
-70 -88 100 0
-70 -88 -94 0
70 88 -94 0
70 -88 94 0
-70 88 94 0
75 -82 0
-82 105 0
-75 82 -105 0
-75 -76 -105 0
75 -76 105 0
-75 76 105 0
75 76 -105 0
-73 98 -101 0
-73 -82 98 0
-82 98 -101 0
73 -98 101 0
73 82 -98 0
82 -98 101 0
73 -91 -98 0
-91 -98 101 0
82 -91 -98 0
-73 91 98 0
91 98 -101 0
-82 91 98 0
-73 -82 91 -101 0
73 82 -91 101 0
-71 87 -95 0
-71 87 -98 0
87 -95 -98 0
71 -87 95 0
71 -87 98 0
-87 95 98 0
-69 71 -87 0
-69 -87 95 0
-69 -87 98 0
69 -71 87 0
69 87 -95 0
69 87 -98 0
69 -71 -95 -98 0
-69 71 95 98 0
68 -83 -104 0
68 -87 -104 0
68 -83 -87 0
-68 83 104 0
-68 87 104 0
-68 83 87 0
-67 -68 104 0
-67 -68 83 0
-67 -68 87 0
67 68 -104 0
67 68 -83 0
67 68 -87 0
67 -83 -87 -104 0
-67 83 87 104 0
66 -77 -94 0
66 -68 -94 0
66 -68 -77 0
-66 77 94 0
-66 68 94 0
-66 68 77 0
-65 -66 94 0
-65 -66 77 0
-65 -66 68 0
65 66 -94 0
65 66 -77 0
65 66 -68 0
65 -68 -77 -94 0
-65 68 77 94 0
64 -99 -100 0
64 -66 -100 0
64 -66 -99 0
-64 99 100 0
-64 66 100 0
-64 66 99 0
-63 -64 100 0
-63 -64 99 0
-63 -64 66 0
63 64 -100 0
63 64 -99 0
63 64 -66 0
63 -66 -99 -100 0
-63 66 99 100 0
-62 92 0
-62 64 0
62 -64 -92 0
-61 -64 -92 0
-61 64 92 0
61 64 -92 0
61 -64 92 0
-60 88 0
-60 62 0
60 -62 -88 0
-59 -62 -88 0
-59 62 88 0
59 62 -88 0
59 -62 88 0
-58 -105 0
-58 -114 0
58 105 114 0
-57 105 114 0
-57 -105 -114 0
57 -105 114 0
57 105 -114 0
-56 58 0
-56 -116 0
56 -58 116 0
-55 -58 116 0
-55 58 -116 0
55 58 116 0
55 -58 -116 0
-54 56 0
-54 -118 0
54 -56 118 0
-56 118 -120 0
56 -118 -120 0
56 118 120 0
-56 -118 120 0
54 -121 0
-76 -121 0
-54 76 121 0
-54 76 -122 0
54 -76 -122 0
54 76 122 0
-54 -76 122 0
121 -123 0
-91 -123 0
91 -121 123 0
91 -121 -124 0
-91 121 -124 0
91 121 124 0
-91 -121 124 0
123 -125 0
-69 -125 0
69 -123 125 0
69 -123 -126 0
-69 123 -126 0
69 123 126 0
-69 -123 126 0
125 -127 0
-67 -127 0
67 -125 127 0
67 -125 -128 0
-67 125 -128 0
67 125 128 0
-67 -125 128 0
127 -129 0
-65 -129 0
65 -127 129 0
65 -127 -130 0
-65 127 -130 0
65 127 130 0
-65 -127 130 0
129 -131 0
-63 -131 0
63 -129 131 0
63 -129 -132 0
-63 129 -132 0
63 129 132 0
-63 -129 132 0
131 -133 0
-61 -133 0
61 -131 133 0
61 -131 -134 0
-61 131 -134 0
61 131 134 0
-61 -131 134 0
133 -135 0
-59 -135 0
59 -133 135 0
59 -133 -136 0
-59 133 -136 0
59 133 136 0
-59 -133 136 0
135 -137 0
-60 -137 0
60 -135 137 0
60 -135 -138 0
-60 135 -138 0
60 135 138 0
-60 -135 138 0
-139 -141 0
139 141 0
139 -142 0
-139 142 0
141 -143 0
-143 -144 0
-141 143 144 0
-141 144 -146 0
141 -144 -146 0
141 144 146 0
-141 -144 146 0
143 -147 0
-147 -148 0
-143 147 148 0
-143 148 -150 0
143 -148 -150 0
143 148 150 0
-143 -148 150 0
147 -151 0
-151 -152 0
-147 151 152 0
-147 152 -154 0
147 -152 -154 0
147 152 154 0
-147 -152 154 0
151 -155 0
-155 -156 0
-151 155 156 0
-151 156 -158 0
151 -156 -158 0
151 156 158 0
-151 -156 158 0
155 -159 0
-159 -160 0
-155 159 160 0
-155 160 -162 0
155 -160 -162 0
155 160 162 0
-155 -160 162 0
159 -163 0
-163 -164 0
-159 163 164 0
-159 164 -166 0
159 -164 -166 0
159 164 166 0
-159 -164 166 0
139 -167 0
-139 167 0
-139 -144 168 0
139 144 -168 0
144 -168 0
139 -168 0
144 -168 -169 0
139 -168 -169 0
-168 -169 0
-144 168 169 0
-139 168 169 0
139 144 -169 0
-144 -148 170 0
-148 -168 170 0
-144 -168 170 0
144 148 -170 0
148 168 -170 0
144 168 -170 0
148 -170 -171 0
144 -170 -171 0
168 -170 -171 0
-148 170 171 0
-144 170 171 0
-168 170 171 0
-144 -148 -168 171 0
144 148 168 -171 0
-148 -152 172 0
-152 -170 172 0
-148 -170 172 0
148 152 -172 0
152 170 -172 0
148 170 -172 0
152 -172 -173 0
148 -172 -173 0
170 -172 -173 0
-152 172 173 0
-148 172 173 0
-170 172 173 0
-148 -152 -170 173 0
148 152 170 -173 0
-152 -156 174 0
-156 -172 174 0
-152 -172 174 0
152 156 -174 0
156 172 -174 0
152 172 -174 0
156 -174 -175 0
152 -174 -175 0
172 -174 -175 0
-156 174 175 0
-152 174 175 0
-172 174 175 0
-152 -156 -172 175 0
152 156 172 -175 0
-156 -160 176 0
-160 -174 176 0
-156 -174 176 0
156 160 -176 0
160 174 -176 0
156 174 -176 0
-106 160 -176 0
-106 156 -176 0
-106 174 -176 0
106 -160 176 0
106 -156 176 0
106 -174 176 0
106 -156 -160 -174 0
-106 156 160 174 0
102 -160 -164 0
102 -164 -176 0
102 -160 -176 0
-102 160 164 0
-102 164 176 0
-102 160 176 0
-96 -102 164 0
-96 -102 160 0
-96 -102 176 0
96 102 -164 0
96 102 -160 0
96 102 -176 0
96 -160 -164 -176 0
-96 160 164 176 0
-84 164 0
-84 102 0
84 -102 -164 0
-78 -102 -164 0
-78 102 164 0
78 102 -164 0
78 -102 164 0
-93 171 0
93 -171 0
89 -139 -173 0
-89 139 173 0
-89 173 0
-89 139 0
-89 173 -177 0
-89 139 -177 0
-89 -177 0
89 -173 177 0
89 -139 177 0
139 173 -177 0
140 -144 -175 0
-89 140 -175 0
-89 140 -144 0
-140 144 175 0
89 -140 175 0
89 -140 144 0
-140 -145 175 0
-140 144 -145 0
89 -140 -145 0
140 145 -175 0
140 -144 145 0
-89 140 145 0
-89 -144 145 -175 0
89 144 -145 175 0
-106 -148 149 0
-106 -140 149 0
-140 -148 149 0
106 148 -149 0
106 140 -149 0
140 148 -149 0
106 -149 -153 0
148 -149 -153 0
140 -149 -153 0
-106 149 153 0
-148 149 153 0
-140 149 153 0
-106 -140 -148 153 0
106 140 148 -153 0
-96 -152 157 0
-96 -149 157 0
-149 -152 157 0
96 152 -157 0
96 149 -157 0
149 152 -157 0
96 -157 -161 0
152 -157 -161 0
149 -157 -161 0
-96 157 161 0
-152 157 161 0
-149 157 161 0
-96 -149 -152 161 0
96 149 152 -161 0
-78 -156 165 0
-78 -157 165 0
-156 -157 165 0
78 156 -165 0
78 157 -165 0
156 157 -165 0
78 -165 -178 0
156 -165 -178 0
157 -165 -178 0
-78 165 178 0
-156 165 178 0
-157 165 178 0
-78 -156 -157 178 0
78 156 157 -178 0
-84 -160 179 0
-84 -165 179 0
-160 -165 179 0
84 160 -179 0
84 165 -179 0
160 165 -179 0
84 -179 -180 0
160 -179 -180 0
165 -179 -180 0
-84 179 180 0
-160 179 180 0
-165 179 180 0
-84 -160 -165 180 0
84 160 165 -180 0
-53 164 0
-53 179 0
53 -164 -179 0
-52 -164 -179 0
-52 164 179 0
52 -164 179 0
52 164 -179 0
-51 177 0
51 -177 0
50 -139 -145 0
-50 139 145 0
-50 145 0
-50 139 0
-49 -50 145 0
-49 -50 139 0
-49 -50 0
49 50 -145 0
49 50 -139 0
-49 139 145 0
48 -144 -153 0
48 -50 -153 0
48 -50 -144 0
-48 144 153 0
-48 50 153 0
-48 50 144 0
-47 -48 153 0
-47 -48 144 0
-47 -48 50 0
47 48 -153 0
47 48 -144 0
47 48 -50 0
47 -50 -144 -153 0
-47 50 144 153 0
46 -148 -161 0
46 -48 -161 0
46 -48 -148 0
-46 148 161 0
-46 48 161 0
-46 48 148 0
-45 -46 161 0
-45 -46 148 0
-45 -46 48 0
45 46 -161 0
45 46 -148 0
45 46 -48 0
45 -48 -148 -161 0
-45 48 148 161 0
44 -152 -178 0
44 -46 -178 0
44 -46 -152 0
-44 152 178 0
-44 46 178 0
-44 46 152 0
-43 -44 178 0
-43 -44 152 0
-43 -44 46 0
43 44 -178 0
43 44 -152 0
43 44 -46 0
43 -46 -152 -178 0
-43 46 152 178 0
42 -156 -180 0
42 -44 -180 0
42 -44 -156 0
-42 156 180 0
-42 44 180 0
-42 44 156 0
-41 -42 180 0
-41 -42 156 0
-41 -42 44 0
41 42 -180 0
41 42 -156 0
41 42 -44 0
41 -44 -156 -180 0
-41 44 156 180 0
40 -52 -160 0
40 -42 -52 0
40 -42 -160 0
-40 52 160 0
-40 42 52 0
-40 42 160 0
-39 -40 52 0
-39 -40 160 0
-39 -40 42 0
39 40 -52 0
39 40 -160 0
39 40 -42 0
39 -42 -52 -160 0
-39 42 52 160 0
38 -53 -164 0
38 -40 -53 0
38 -40 -164 0
-38 53 164 0
-38 40 53 0
-38 40 164 0
-37 -38 53 0
-37 -38 164 0
-37 -38 40 0
37 38 -53 0
37 38 -164 0
37 38 -40 0
37 -40 -53 -164 0
-37 40 53 164 0
-36 -167 0
36 167 0
-35 167 0
35 -167 0
-34 36 0
-34 -169 0
34 -36 169 0
-33 -36 169 0
-33 36 -169 0
33 36 169 0
33 -36 -169 0
-32 34 0
-32 -93 0
32 -34 93 0
-31 -34 93 0
-31 34 -93 0
31 34 93 0
31 -34 -93 0
-30 32 0
-30 -51 0
30 -32 51 0
-29 -32 51 0
-29 32 -51 0
29 32 51 0
29 -32 -51 0
-28 30 0
-28 -49 0
28 -30 49 0
-27 -30 49 0
-27 30 -49 0
27 30 49 0
27 -30 -49 0
-26 28 0
-26 -47 0
26 -28 47 0
-25 -28 47 0
-25 28 -47 0
25 28 47 0
25 -28 -47 0
-24 26 0
-24 -45 0
24 -26 45 0
-23 -26 45 0
-23 26 -45 0
23 26 45 0
23 -26 -45 0
-22 24 0
-22 -43 0
22 -24 43 0
-21 -24 43 0
-21 24 -43 0
21 24 43 0
21 -24 -43 0
-20 22 0
-20 -41 0
20 -22 41 0
-19 -22 41 0
-19 22 -41 0
19 22 41 0
19 -22 -41 0
-18 20 0
-18 -39 0
18 -20 39 0
-17 -20 39 0
-17 20 -39 0
17 20 39 0
17 -20 -39 0
-16 18 0
-16 -37 0
16 -18 37 0
-15 -18 37 0
-15 18 -37 0
15 18 37 0
15 -18 -37 0
-14 16 0
-14 -38 0
14 -16 38 0
-13 -16 38 0
-13 16 -38 0
13 16 38 0
13 -16 -38 0
-12 105 0
-12 167 0
12 -105 -167 0
-105 -167 0
105 167 0
11 -114 -169 0
11 -12 -114 0
11 -12 -169 0
-11 114 169 0
-11 12 114 0
-11 12 169 0
-11 114 0
-11 169 0
-11 12 0
12 114 169 0
10 -93 -116 0
10 -11 -116 0
10 -11 -93 0
-10 93 116 0
-10 11 116 0
-10 11 93 0
10 -116 0
10 -93 0
10 -11 0
-11 -93 -116 0
9 -51 -118 0
9 -10 -118 0
9 -10 -51 0
-9 51 118 0
-9 10 118 0
-9 10 51 0
9 -118 0
9 -51 0
9 -10 0
-10 -51 -118 0
8 -49 -76 0
8 -9 -76 0
8 -9 -49 0
-8 49 76 0
-8 9 76 0
-8 9 49 0
8 -76 0
8 -49 0
8 -9 0
-9 -49 -76 0
7 -47 -91 0
7 -8 -91 0
7 -8 -47 0
-7 47 91 0
-7 8 91 0
-7 8 47 0
-7 91 0
-7 47 0
-7 8 0
8 47 91 0
6 -45 -69 0
6 -7 -69 0
6 -7 -45 0
-6 45 69 0
-6 7 69 0
-6 7 45 0
-6 69 0
-6 45 0
-6 7 0
7 45 69 0
5 -43 -67 0
5 -6 -67 0
5 -6 -43 0
-5 43 67 0
-5 6 67 0
-5 6 43 0
5 -67 0
5 -43 0
5 -6 0
-6 -43 -67 0
4 -41 -65 0
4 -5 -65 0
4 -5 -41 0
-4 41 65 0
-4 5 65 0
-4 5 41 0
4 -65 0
4 -41 0
4 -5 0
-5 -41 -65 0
3 -39 -63 0
3 -4 -63 0
3 -4 -39 0
-3 39 63 0
-3 4 63 0
-3 4 39 0
3 -63 0
3 -39 0
3 -4 0
-4 -39 -63 0
2 -37 -61 0
2 -3 -61 0
2 -3 -37 0
-2 37 61 0
-2 3 61 0
-2 3 37 0
2 -61 0
2 -37 0
2 -3 0
-3 -37 -61 0
1 -38 -59 0
1 -2 -59 0
1 -2 -38 0
-1 38 59 0
-1 2 59 0
-1 2 38 0
1 -59 0
1 -38 0
1 -2 0
-2 -38 -59 0
-1 -60 0
1 -60 0
-1 60 0
